120
150
96
30
80
50
46
71
31
68
92
29
46
77
82
74
92
98
29
82
88
68
94
79
94
71
82
98
86
100
20
58
82
50
96
82
62
36
90
64
24
54
94
99
90
46
24
52
28
36
52
54
31
60
40
46
68
78
68
29
74
80
94
31
72
90
73
90
22
77
100
92
58
86
60
98
64
85
97
28
50
52
70
73
72
80
29
81
100
60
68
94
78
50
86
55
90
64
86
64
87
31
31
20
64
98
82
31
94
24
100
50
24
52
98
94
55
29
52
55
70
68
